9 9
30 21
8 14 3 2
1 2 2 1
15 8 3 1
2 11 1 3
20 13 2 2
20 8 2 2
13 12 3 1
17 19 2 4
3 14 2 5
15 15 1 1
7 3 2 3
10 19 2 2
8 7 1 4
20 3 3 3
7 7 1 1
8 13 1 4
3 12 2 5
0 6 2 3
13 13 3 2
14 6 1 1
6 15 3 3
20 14 2 4
7 9 3 5
20 18 3 4
12 20 1 4
3 10 1 4
9 7 2 5
5 11 3 3
19 2 2 1
1 8 1 4
